\* NFL *\
Maximize
OBJ: 40.4374509274 29436419 + 4.78640230173 29436420 + 36.6478508995 29436421
 + 47.8667631272 29436422 + 25.2239309675 29436423 + 10.9682994508 29436424
 - 20.885825501 29436425 + 21.0743039039 29436426 + 10.0321085509 29436431
 + 18.8061752527 29436432 + 4.90922683541 29436433 + 24.3483987072 29436434
 - 5.96423210215 29436435 + 1.37888796193 29436436 + 19.1111465199 29436437
 + 5.7619371412 29436438 + 25.3913141529 29436439 + 3.55425877447 29436440
 + 3.78973998715 29436441 + 3.39551293691 29436442 + 4.62822529044 29436443
 + 17.652293501 29436444 + 2.08952885619 29436445 + 1.08074741096 29436446
 + 4.97374794484 29436447 - 0.363741361714 29436461 + 4.2131602185 29436464
 + 23.7448473288 29436470 + 16.6993901134 29436471 - 1.0495115594 29436472
 + 7.89372873953 29436473 + 25.2548647432 29436474 + 2.16034866737 29436475
 + 15.8076144743 29436476 + 13.3212998756 29436477 + 13.790200036 29436482
 - 13.5761075593 29436483 + 8.38346868628 29436484 + 4.56883970983 29436485
 + 3.90235263047 29436486 - 0.312641984614 29436487 + 11.7136934426 29436488
 + 5.1529106805 29436489 - 5.7113131926 29436490 - 7.07405120322 29436491
 + 4.21886708451 29436492 + 8.81657934372 29436493 + 15.9510308229 29436494
 - 2.59744192755 29436495 - 6.22084843928 29436496 - 0.940629370926 29436497
 + 3.11228715599 29436498 - 0.605536747733 29436512 + 5.00068952941 29436515
Subject To
CPT_==_1: 29436419 + 29436420 + 29436421 + 29436422 + 29436423 + 29436424
 + 29436425 + 29436426 + 29436427 + 29436428 + 29436429 + 29436430 + 29436431
 + 29436432 + 29436433 + 29436434 + 29436435 + 29436436 + 29436437 + 29436438
 + 29436439 + 29436440 + 29436441 + 29436442 + 29436443 + 29436444 + 29436445
 + 29436446 + 29436447 + 29436448 + 29436449 + 29436450 + 29436451 + 29436452
 + 29436453 + 29436454 + 29436455 + 29436456 + 29436457 + 29436458 + 29436459
 + 29436460 + 29436461 + 29436462 + 29436463 + 29436464 + 29436465 + 29436466
 + 29436467 + 29436468 + 29436469 = 1
FLEX_==_5: 29436470 + 29436471 + 29436472 + 29436473 + 29436474 + 29436475
 + 29436476 + 29436477 + 29436478 + 29436479 + 29436480 + 29436481 + 29436482
 + 29436483 + 29436484 + 29436485 + 29436486 + 29436487 + 29436488 + 29436489
 + 29436490 + 29436491 + 29436492 + 29436493 + 29436494 + 29436495 + 29436496
 + 29436497 + 29436498 + 29436499 + 29436500 + 29436501 + 29436502 + 29436503
 + 29436504 + 29436505 + 29436506 + 29436507 + 29436508 + 29436509 + 29436510
 + 29436511 + 29436512 + 29436513 + 29436514 + 29436515 + 29436516 + 29436517
 + 29436518 + 29436519 + 29436520 = 5
Global_team_limit_DAL_5: 29436419 + 29436421 + 29436422 + 29436425 + 29436428
 + 29436429 + 29436431 + 29436433 + 29436434 + 29436437 + 29436440 + 29436442
 + 29436444 + 29436445 + 29436446 + 29436448 + 29436450 + 29436451 + 29436454
 + 29436455 + 29436458 + 29436459 + 29436460 + 29436461 + 29436463 + 29436467
 + 29436470 + 29436472 + 29436473 + 29436476 + 29436479 + 29436480 + 29436482
 + 29436484 + 29436485 + 29436488 + 29436491 + 29436493 + 29436495 + 29436496
 + 29436497 + 29436499 + 29436501 + 29436502 + 29436505 + 29436506 + 29436509
 + 29436510 + 29436511 + 29436512 + 29436514 + 29436518 <= 5
Global_team_limit_NYG_5: 29436420 + 29436423 + 29436424 + 29436426 + 29436427
 + 29436430 + 29436432 + 29436435 + 29436436 + 29436438 + 29436439 + 29436441
 + 29436443 + 29436447 + 29436449 + 29436452 + 29436453 + 29436456 + 29436457
 + 29436462 + 29436464 + 29436465 + 29436466 + 29436468 + 29436469 + 29436471
 + 29436474 + 29436475 + 29436477 + 29436478 + 29436481 + 29436483 + 29436486
 + 29436487 + 29436489 + 29436490 + 29436492 + 29436494 + 29436498 + 29436500
 + 29436503 + 29436504 + 29436507 + 29436508 + 29436513 + 29436515 + 29436516
 + 29436517 + 29436519 + 29436520 <= 5
Lineup_0: 29436431 + 29436472 + 29436473 + 29436474 + 29436476 + 29436490 <= 5
Lineup_1: 29436435 + 29436471 + 29436472 + 29436474 + 29436477 + 29436485 <= 5
Lineup_10: 29436419 + 29436474 + 29436476 + 29436482 + 29436487 + 29436491
 <= 5
Lineup_11: 29436431 + 29436471 + 29436473 + 29436475 + 29436476 + 29436485
 <= 5
Lineup_12: 29436442 + 29436470 + 29436472 + 29436473 + 29436474 + 29436488
 <= 5
Lineup_13: 29436432 + 29436470 + 29436473 + 29436475 + 29436477 + 29436482
 <= 5
Lineup_14: 29436432 + 29436471 + 29436472 + 29436474 + 29436477 + 29436485
 <= 5
Lineup_15: 29436425 + 29436470 + 29436471 + 29436473 + 29436487 + 29436496
 <= 5
Lineup_16: 29436434 + 29436471 + 29436472 + 29436473 + 29436474 + 29436493
 <= 5
Lineup_17: 29436421 + 29436470 + 29436473 + 29436475 + 29436487 + 29436498
 <= 5
Lineup_18: 29436420 + 29436472 + 29436473 + 29436476 + 29436485 + 29436494
 <= 5
Lineup_19: 29436421 + 29436470 + 29436474 + 29436477 + 29436482 + 29436498
 <= 5
Lineup_2: 29436423 + 29436471 + 29436473 + 29436476 + 29436482 + 29436493 <= 5
Lineup_20: 29436431 + 29436470 + 29436471 + 29436472 + 29436485 + 29436487
 <= 5
Lineup_21: 29436432 + 29436471 + 29436472 + 29436474 + 29436477 + 29436487
 <= 5
Lineup_22: 29436420 + 29436472 + 29436473 + 29436474 + 29436494 + 29436498
 <= 5
Lineup_23: 29436420 + 29436470 + 29436477 + 29436482 + 29436484 + 29436485
 <= 5
Lineup_24: 29436423 + 29436470 + 29436473 + 29436486 + 29436488 + 29436494
 <= 5
Lineup_25: 29436423 + 29436473 + 29436475 + 29436477 + 29436483 + 29436486
 <= 5
Lineup_26: 29436425 + 29436470 + 29436473 + 29436477 + 29436488 + 29436490
 <= 5
Lineup_27: 29436436 + 29436472 + 29436474 + 29436475 + 29436476 + 29436483
 <= 5
Lineup_28: 29436421 + 29436473 + 29436476 + 29436477 + 29436484 + 29436487
 <= 5
Lineup_29: 29436419 + 29436473 + 29436474 + 29436477 + 29436483 + 29436494
 <= 5
Lineup_3: 29436424 + 29436470 + 29436471 + 29436476 + 29436487 + 29436495 <= 5
Lineup_30: 29436439 + 29436471 + 29436472 + 29436473 + 29436474 + 29436487
 <= 5
Lineup_31: 29436422 + 29436470 + 29436472 + 29436477 + 29436485 + 29436493
 <= 5
Lineup_32: 29436420 + 29436470 + 29436473 + 29436485 + 29436487 + 29436492
 <= 5
Lineup_33: 29436424 + 29436470 + 29436473 + 29436482 + 29436483 + 29436485
 <= 5
Lineup_34: 29436419 + 29436474 + 29436477 + 29436482 + 29436483 + 29436487
 <= 5
Lineup_35: 29436425 + 29436473 + 29436474 + 29436477 + 29436485 + 29436488
 <= 5
Lineup_4: 29436432 + 29436470 + 29436472 + 29436474 + 29436476 + 29436493 <= 5
Lineup_5: 29436422 + 29436472 + 29436474 + 29436475 + 29436487 + 29436496 <= 5
Lineup_6: 29436426 + 29436471 + 29436472 + 29436474 + 29436484 + 29436485 <= 5
Lineup_7: 29436424 + 29436473 + 29436474 + 29436476 + 29436482 + 29436490 <= 5
Lineup_8: 29436432 + 29436471 + 29436472 + 29436474 + 29436475 + 29436498 <= 5
Lineup_9: 29436431 + 29436471 + 29436474 + 29436476 + 29436477 + 29436484 <= 5
Max_5_players_from_one_team_DAL: 29436419 + 29436421 + 29436422 + 29436425
 + 29436428 + 29436429 + 29436431 + 29436433 + 29436434 + 29436437 + 29436440
 + 29436442 + 29436444 + 29436445 + 29436446 + 29436448 + 29436450 + 29436451
 + 29436454 + 29436455 + 29436458 + 29436459 + 29436460 + 29436461 + 29436463
 + 29436467 + 29436470 + 29436472 + 29436473 + 29436476 + 29436479 + 29436480
 + 29436482 + 29436484 + 29436485 + 29436488 + 29436491 + 29436493 + 29436495
 + 29436496 + 29436497 + 29436499 + 29436501 + 29436502 + 29436505 + 29436506
 + 29436509 + 29436510 + 29436511 + 29436512 + 29436514 + 29436518 <= 5
Max_5_players_from_one_team_NYG: 29436420 + 29436423 + 29436424 + 29436426
 + 29436427 + 29436430 + 29436432 + 29436435 + 29436436 + 29436438 + 29436439
 + 29436441 + 29436443 + 29436447 + 29436449 + 29436452 + 29436453 + 29436456
 + 29436457 + 29436462 + 29436464 + 29436465 + 29436466 + 29436468 + 29436469
 + 29436471 + 29436474 + 29436475 + 29436477 + 29436478 + 29436481 + 29436483
 + 29436486 + 29436487 + 29436489 + 29436490 + 29436492 + 29436494 + 29436498
 + 29436500 + 29436503 + 29436504 + 29436507 + 29436508 + 29436513 + 29436515
 + 29436516 + 29436517 + 29436519 + 29436520 <= 5
Max_Salary: 16500 29436419 + 15900 29436420 + 15600 29436421 + 15000 29436422
 + 14100 29436423 + 12600 29436424 + 10800 29436425 + 9600 29436426
 + 9000 29436427 + 9000 29436428 + 9000 29436429 + 9000 29436430
 + 8700 29436431 + 8100 29436432 + 7800 29436433 + 7200 29436434
 + 6900 29436435 + 6600 29436436 + 6300 29436437 + 6000 29436438
 + 5100 29436439 + 4500 29436440 + 3600 29436441 + 2700 29436442
 + 2400 29436443 + 1500 29436444 + 1200 29436445 + 900 29436446 + 600 29436447
 + 300 29436448 + 300 29436449 + 300 29436450 + 300 29436451 + 300 29436452
 + 300 29436453 + 300 29436454 + 300 29436455 + 300 29436456 + 300 29436457
 + 300 29436458 + 300 29436459 + 300 29436460 + 300 29436461 + 300 29436462
 + 300 29436463 + 300 29436464 + 300 29436465 + 300 29436466 + 300 29436467
 + 300 29436468 + 300 29436469 + 11000 29436470 + 10600 29436471
 + 10400 29436472 + 10000 29436473 + 9400 29436474 + 8400 29436475
 + 7200 29436476 + 6400 29436477 + 6000 29436478 + 6000 29436479
 + 6000 29436480 + 6000 29436481 + 5800 29436482 + 5400 29436483
 + 5200 29436484 + 4800 29436485 + 4600 29436486 + 4400 29436487
 + 4200 29436488 + 4000 29436489 + 3400 29436490 + 3000 29436491
 + 2400 29436492 + 1800 29436493 + 1600 29436494 + 1000 29436495
 + 800 29436496 + 600 29436497 + 400 29436498 + 200 29436499 + 200 29436500
 + 200 29436501 + 200 29436502 + 200 29436503 + 200 29436504 + 200 29436505
 + 200 29436506 + 200 29436507 + 200 29436508 + 200 29436509 + 200 29436510
 + 200 29436511 + 200 29436512 + 200 29436513 + 200 29436514 + 200 29436515
 + 200 29436516 + 200 29436517 + 200 29436518 + 200 29436519 + 200 29436520
 <= 50000
Min_Salary: 16500 29436419 + 15900 29436420 + 15600 29436421 + 15000 29436422
 + 14100 29436423 + 12600 29436424 + 10800 29436425 + 9600 29436426
 + 9000 29436427 + 9000 29436428 + 9000 29436429 + 9000 29436430
 + 8700 29436431 + 8100 29436432 + 7800 29436433 + 7200 29436434
 + 6900 29436435 + 6600 29436436 + 6300 29436437 + 6000 29436438
 + 5100 29436439 + 4500 29436440 + 3600 29436441 + 2700 29436442
 + 2400 29436443 + 1500 29436444 + 1200 29436445 + 900 29436446 + 600 29436447
 + 300 29436448 + 300 29436449 + 300 29436450 + 300 29436451 + 300 29436452
 + 300 29436453 + 300 29436454 + 300 29436455 + 300 29436456 + 300 29436457
 + 300 29436458 + 300 29436459 + 300 29436460 + 300 29436461 + 300 29436462
 + 300 29436463 + 300 29436464 + 300 29436465 + 300 29436466 + 300 29436467
 + 300 29436468 + 300 29436469 + 11000 29436470 + 10600 29436471
 + 10400 29436472 + 10000 29436473 + 9400 29436474 + 8400 29436475
 + 7200 29436476 + 6400 29436477 + 6000 29436478 + 6000 29436479
 + 6000 29436480 + 6000 29436481 + 5800 29436482 + 5400 29436483
 + 5200 29436484 + 4800 29436485 + 4600 29436486 + 4400 29436487
 + 4200 29436488 + 4000 29436489 + 3400 29436490 + 3000 29436491
 + 2400 29436492 + 1800 29436493 + 1600 29436494 + 1000 29436495
 + 800 29436496 + 600 29436497 + 400 29436498 + 200 29436499 + 200 29436500
 + 200 29436501 + 200 29436502 + 200 29436503 + 200 29436504 + 200 29436505
 + 200 29436506 + 200 29436507 + 200 29436508 + 200 29436509 + 200 29436510
 + 200 29436511 + 200 29436512 + 200 29436513 + 200 29436514 + 200 29436515
 + 200 29436516 + 200 29436517 + 200 29436518 + 200 29436519 + 200 29436520
 >= 45000
No_player_in_both_CPT_and_FLEX__("wan'dale_robinson",_'FLEX',_'NYG'),_("wan'dale_robinson",_'CPT',_'NYG')_:
 29436449 + 29436500 <= 1
No_player_in_both_CPT_and_FLEX__('brandin_cooks',_'FLEX',_'DAL'),_('brandin_cooks',_'CPT',_'DAL')_:
 29436425 + 29436476 <= 1
No_player_in_both_CPT_and_FLEX__('brandon_aubrey',_'FLEX',_'DAL'),_('brandon_aubrey',_'CPT',_'DAL')_:
 29436437 + 29436488 <= 1
No_player_in_both_CPT_and_FLEX__('bryce_ford#wheaton',_'FLEX',_'NYG'),_('bryce_ford#wheaton',_'CPT',_'NYG')_:
 29436469 + 29436520 <= 1
No_player_in_both_CPT_and_FLEX__('cam_sims',_'FLEX',_'NYG'),_('cam_sims',_'CPT',_'NYG')_:
 29436465 + 29436516 <= 1
No_player_in_both_CPT_and_FLEX__('ceedee_lamb',_'FLEX',_'DAL'),_('ceedee_lamb',_'CPT',_'DAL')_:
 29436421 + 29436472 <= 1
No_player_in_both_CPT_and_FLEX__('chris_myarick',_'FLEX',_'NYG'),_('chris_myarick',_'CPT',_'NYG')_:
 29436453 + 29436504 <= 1
No_player_in_both_CPT_and_FLEX__('cooper_rush',_'FLEX',_'DAL'),_('cooper_rush',_'CPT',_'DAL')_:
 29436428 + 29436479 <= 1
No_player_in_both_CPT_and_FLEX__('cowboys',_'FLEX',_'DAL'),_('cowboys',_'CPT',_'DAL')_:
 29436433 + 29436484 <= 1
No_player_in_both_CPT_and_FLEX__('dak_prescott',_'FLEX',_'DAL'),_('dak_prescott',_'CPT',_'DAL')_:
 29436422 + 29436473 <= 1
No_player_in_both_CPT_and_FLEX__('daniel_bellinger',_'FLEX',_'NYG'),_('daniel_bellinger',_'CPT',_'NYG')_:
 29436447 + 29436498 <= 1
No_player_in_both_CPT_and_FLEX__('daniel_jones',_'FLEX',_'NYG'),_('daniel_jones',_'CPT',_'NYG')_:
 29436423 + 29436474 <= 1
No_player_in_both_CPT_and_FLEX__('darius_slayton',_'FLEX',_'NYG'),_('darius_slayton',_'CPT',_'NYG')_:
 29436432 + 29436483 <= 1
No_player_in_both_CPT_and_FLEX__('darren_waller',_'FLEX',_'NYG'),_('darren_waller',_'CPT',_'NYG')_:
 29436424 + 29436475 <= 1
No_player_in_both_CPT_and_FLEX__('david_durden',_'FLEX',_'DAL'),_('david_durden',_'CPT',_'DAL')_:
 29436459 + 29436510 <= 1
No_player_in_both_CPT_and_FLEX__('dennis_houston',_'FLEX',_'NYG'),_('dennis_houston',_'CPT',_'NYG')_:
 29436466 + 29436517 <= 1
No_player_in_both_CPT_and_FLEX__('deuce_vaughn',_'FLEX',_'DAL'),_('deuce_vaughn',_'CPT',_'DAL')_:
 29436440 + 29436491 <= 1
No_player_in_both_CPT_and_FLEX__('eric_gray',_'FLEX',_'NYG'),_('eric_gray',_'CPT',_'NYG')_:
 29436462 + 29436513 <= 1
No_player_in_both_CPT_and_FLEX__('gary_brightwell',_'FLEX',_'NYG'),_('gary_brightwell',_'CPT',_'NYG')_:
 29436464 + 29436515 <= 1
No_player_in_both_CPT_and_FLEX__('giants',_'FLEX',_'NYG'),_('giants',_'CPT',_'NYG')_:
 29436439 + 29436490 <= 1
No_player_in_both_CPT_and_FLEX__('graham_gano',_'FLEX',_'NYG'),_('graham_gano',_'CPT',_'NYG')_:
 29436438 + 29436489 <= 1
No_player_in_both_CPT_and_FLEX__('hunter_luepke',_'FLEX',_'DAL'),_('hunter_luepke',_'CPT',_'DAL')_:
 29436450 + 29436501 <= 1
No_player_in_both_CPT_and_FLEX__('isaiah_hodgins',_'FLEX',_'NYG'),_('isaiah_hodgins',_'CPT',_'NYG')_:
 29436426 + 29436477 <= 1
No_player_in_both_CPT_and_FLEX__('jake_ferguson',_'FLEX',_'DAL'),_('jake_ferguson',_'CPT',_'DAL')_:
 29436434 + 29436485 <= 1
No_player_in_both_CPT_and_FLEX__('jalen_brooks',_'FLEX',_'DAL'),_('jalen_brooks',_'CPT',_'DAL')_:
 29436460 + 29436511 <= 1
No_player_in_both_CPT_and_FLEX__('jalen_cropper',_'FLEX',_'DAL'),_('jalen_cropper',_'CPT',_'DAL')_:
 29436454 + 29436505 <= 1
No_player_in_both_CPT_and_FLEX__('jalen_tolbert',_'FLEX',_'DAL'),_('jalen_tolbert',_'CPT',_'DAL')_:
 29436444 + 29436495 <= 1
No_player_in_both_CPT_and_FLEX__('jalin_hyatt',_'FLEX',_'NYG'),_('jalin_hyatt',_'CPT',_'NYG')_:
 29436435 + 29436486 <= 1
No_player_in_both_CPT_and_FLEX__('john_stephens_jr.',_'FLEX',_'DAL'),_('john_stephens_jr.',_'CPT',_'DAL')_:
 29436448 + 29436499 <= 1
No_player_in_both_CPT_and_FLEX__('kavontae_turpin',_'FLEX',_'DAL'),_('kavontae_turpin',_'CPT',_'DAL')_:
 29436461 + 29436512 <= 1
No_player_in_both_CPT_and_FLEX__('lawrence_cager',_'FLEX',_'NYG'),_('lawrence_cager',_'CPT',_'NYG')_:
 29436452 + 29436503 <= 1
No_player_in_both_CPT_and_FLEX__('luke_schoonmaker',_'FLEX',_'DAL'),_('luke_schoonmaker',_'CPT',_'DAL')_:
 29436446 + 29436497 <= 1
No_player_in_both_CPT_and_FLEX__('malik_davis',_'FLEX',_'DAL'),_('malik_davis',_'CPT',_'DAL')_:
 29436458 + 29436509 <= 1
No_player_in_both_CPT_and_FLEX__('matt_breida',_'FLEX',_'NYG'),_('matt_breida',_'CPT',_'NYG')_:
 29436443 + 29436494 <= 1
No_player_in_both_CPT_and_FLEX__('michael_gallup',_'FLEX',_'DAL'),_('michael_gallup',_'CPT',_'DAL')_:
 29436431 + 29436482 <= 1
No_player_in_both_CPT_and_FLEX__('parris_campbell',_'FLEX',_'NYG'),_('parris_campbell',_'CPT',_'NYG')_:
 29436436 + 29436487 <= 1
No_player_in_both_CPT_and_FLEX__('peyton_hendershot',_'FLEX',_'DAL'),_('peyton_hendershot',_'CPT',_'DAL')_:
 29436445 + 29436496 <= 1
No_player_in_both_CPT_and_FLEX__('princeton_fant',_'FLEX',_'DAL'),_('princeton_fant',_'CPT',_'DAL')_:
 29436455 + 29436506 <= 1
No_player_in_both_CPT_and_FLEX__('rico_dowdle',_'FLEX',_'DAL'),_('rico_dowdle',_'CPT',_'DAL')_:
 29436442 + 29436493 <= 1
No_player_in_both_CPT_and_FLEX__('ronald_jones_ii',_'FLEX',_'DAL'),_('ronald_jones_ii',_'CPT',_'DAL')_:
 29436463 + 29436514 <= 1
No_player_in_both_CPT_and_FLEX__('ryan_jones',_'FLEX',_'NYG'),_('ryan_jones',_'CPT',_'NYG')_:
 29436456 + 29436507 <= 1
No_player_in_both_CPT_and_FLEX__('saquon_barkley',_'FLEX',_'NYG'),_('saquon_barkley',_'CPT',_'NYG')_:
 29436420 + 29436471 <= 1
No_player_in_both_CPT_and_FLEX__('sean_mckeon',_'FLEX',_'DAL'),_('sean_mckeon',_'CPT',_'DAL')_:
 29436451 + 29436502 <= 1
No_player_in_both_CPT_and_FLEX__('sterling_shepard',_'FLEX',_'NYG'),_('sterling_shepard',_'CPT',_'NYG')_:
 29436441 + 29436492 <= 1
No_player_in_both_CPT_and_FLEX__('taiwan_jones',_'FLEX',_'NYG'),_('taiwan_jones',_'CPT',_'NYG')_:
 29436457 + 29436508 <= 1
No_player_in_both_CPT_and_FLEX__('tommy_devito',_'FLEX',_'NYG'),_('tommy_devito',_'CPT',_'NYG')_:
 29436427 + 29436478 <= 1
No_player_in_both_CPT_and_FLEX__('tony_pollard',_'FLEX',_'DAL'),_('tony_pollard',_'CPT',_'DAL')_:
 29436419 + 29436470 <= 1
No_player_in_both_CPT_and_FLEX__('trey_lance',_'FLEX',_'DAL'),_('trey_lance',_'CPT',_'DAL')_:
 29436429 + 29436480 <= 1
No_player_in_both_CPT_and_FLEX__('tyree_jackson',_'FLEX',_'NYG'),_('tyree_jackson',_'CPT',_'NYG')_:
 29436468 + 29436519 <= 1
No_player_in_both_CPT_and_FLEX__('tyrod_taylor',_'FLEX',_'NYG'),_('tyrod_taylor',_'CPT',_'NYG')_:
 29436430 + 29436481 <= 1
No_player_in_both_CPT_and_FLEX__('tyron_billy#johnson',_'FLEX',_'DAL'),_('tyron_billy#johnson',_'CPT',_'DAL')_:
 29436467 + 29436518 <= 1
Binaries
29436419
29436420
29436421
29436422
29436423
29436424
29436425
29436426
29436427
29436428
29436429
29436430
29436431
29436432
29436433
29436434
29436435
29436436
29436437
29436438
29436439
29436440
29436441
29436442
29436443
29436444
29436445
29436446
29436447
29436448
29436449
29436450
29436451
29436452
29436453
29436454
29436455
29436456
29436457
29436458
29436459
29436460
29436461
29436462
29436463
29436464
29436465
29436466
29436467
29436468
29436469
29436470
29436471
29436472
29436473
29436474
29436475
29436476
29436477
29436478
29436479
29436480
29436481
29436482
29436483
29436484
29436485
29436486
29436487
29436488
29436489
29436490
29436491
29436492
29436493
29436494
29436495
29436496
29436497
29436498
29436499
29436500
29436501
29436502
29436503
29436504
29436505
29436506
29436507
29436508
29436509
29436510
29436511
29436512
29436513
29436514
29436515
29436516
29436517
29436518
29436519
29436520
End
